Version identifier: 22.1.0.0 | 2022-03-09 | 1a383f8ce
CPXPARAM_Read_DataCheck                          1
Tried aggregator 3 times.
MIP Presolve eliminated 230 rows and 113 columns.
MIP Presolve modified 8 coefficients.
Aggregator did 128 substitutions.
Reduced MIP has 72 rows, 121 columns, and 305 nonzeros.
Reduced MIP has 117 binaries, 4 generals, 0 SOSs, and 0 indicators.
Presolve time = 0.00 sec. (0.95 ticks)
Found incumbent of value 7.000000 after 0.01 sec. (1.38 ticks)
Probing fixed 6 vars, tightened 0 bounds.
Probing time = 0.00 sec. (0.16 ticks)
Cover probing fixed 1 vars, tightened 0 bounds.
Tried aggregator 2 times.
Detecting symmetries...
MIP Presolve eliminated 9 rows and 9 columns.
Aggregator did 2 substitutions.
Reduced MIP has 61 rows, 110 columns, and 266 nonzeros.
Reduced MIP has 106 binaries, 4 generals, 0 SOSs, and 0 indicators.
Presolve time = 0.00 sec. (0.29 ticks)
Probing time = 0.00 sec. (0.12 ticks)
Clique table members: 307.
MIP emphasis: balance optimality and feasibility.
MIP search method: dynamic search.
Parallel mode: deterministic, using up to 8 threads.
Root relaxation solution time = 0.00 sec. (0.29 ticks)

        Nodes                                         Cuts/
   Node  Left     Objective  IInf  Best Integer    Best Bound    ItCnt     Gap

*     0+    0                            7.0000        0.0000           100.00%
      0     0        4.7000    54        7.0000        4.7000       69   32.86%
      0     0        cutoff              7.0000                     76    0.00%
Elapsed time = 0.03 sec. (4.88 ticks, tree = 0.01 MB, solutions = 1)

Zero-half cuts applied:  2
Lift and project cuts applied:  1
Gomory fractional cuts applied:  4

Root node processing (before b&c):
  Real time             =    0.03 sec. (4.89 ticks)
Parallel b&c, 8 threads:
  Real time             =    0.00 sec. (0.00 ticks)
  Sync time (average)   =    0.00 sec.
  Wait time (average)   =    0.00 sec.
                          ------------
Total (root+branch&cut) =    0.03 sec. (4.89 ticks)
